(set-logic QF_UF)
(declare-fun A0 () Bool)
(declare-fun A1 () Bool)
(declare-fun A2 () Bool)
(declare-fun A3 () Bool)
(declare-fun A4 () Bool)
(declare-fun A5 () Bool)
(declare-fun A7 () Bool)
(declare-fun A8 () Bool)
(declare-fun A9 () Bool)
(declare-fun A10 () Bool)
(declare-fun A12 () Bool)
(declare-fun A13 () Bool)
(declare-fun A14 () Bool)
(declare-fun A15 () Bool)
(declare-fun A16 () Bool)
(declare-fun A17 () Bool)
(declare-fun A18 () Bool)
(declare-fun A19 () Bool)
(declare-fun A20 () Bool)
(declare-fun A21 () Bool)
(declare-fun A22 () Bool)
(declare-fun A24 () Bool)
(assert (let ((.def_0 (not A9))) (let ((.def_1 (or A18 .def_0))) (let ((.def_2 (not .def_1))) (let ((.def_3 (not A24))) (let ((.def_4 (and .def_3 A10))) (let ((.def_5 (and .def_4 .def_2))) (let ((.def_6 (not .def_5))) (let ((.def_7 (not A20))) (let ((.def_8 (or .def_7 A12))) (let ((.def_9 (not .def_8))) (let ((.def_10 (and A0 .def_0))) (let ((.def_11 (and .def_10 .def_9))) (let ((.def_12 (not .def_11))) (let ((.def_13 (and .def_12 .def_6))) (let ((.def_14 (not .def_13))) (let ((.def_15 (and A2 A12))) (let ((.def_16 (not A21))) (let ((.def_17 (and .def_16 A7))) (let ((.def_18 (and .def_17 .def_15))) (let ((.def_19 (not .def_18))) (let ((.def_20 (not A12))) (let ((.def_21 (and .def_20 A16))) (let ((.def_22 (not A10))) (let ((.def_23 (and .def_22 A4))) (let ((.def_24 (not .def_23))) (let ((.def_25 (or .def_24 .def_21))) (let ((.def_26 (not .def_25))) (let ((.def_27 (and .def_26 .def_19))) (let ((.def_28 (not .def_27))) (let ((.def_29 (= .def_28 .def_14))) (let ((.def_30 (not .def_29))) (let ((.def_31 (not A7))) (let ((.def_32 (= A7 .def_31))) (let ((.def_33 (and .def_20 .def_20))) (let ((.def_34 (and .def_33 .def_32))) (let ((.def_35 (not .def_34))) (let ((.def_36 (= .def_7 A0))) (let ((.def_37 (not .def_36))) (let ((.def_38 (not A19))) (let ((.def_39 (or .def_3 .def_38))) (let ((.def_40 (not .def_39))) (let ((.def_41 (or .def_40 .def_37))) (let ((.def_42 (and .def_41 .def_35))) (let ((.def_43 (not .def_42))) (let ((.def_44 (and .def_3 A5))) (let ((.def_45 (and A15 A8))) (let ((.def_46 (= .def_45 .def_44))) (let ((.def_47 (or A3 A16))) (let ((.def_48 (not .def_47))) (let ((.def_49 (not A17))) (let ((.def_50 (not A16))) (let ((.def_51 (= .def_50 .def_49))) (let ((.def_52 (or .def_51 .def_48))) (let ((.def_53 (not .def_52))) (let ((.def_54 (and .def_53 .def_46))) (let ((.def_55 (not .def_54))) (let ((.def_56 (or .def_55 .def_43))) (let ((.def_57 (and .def_56 .def_30))) (let ((.def_58 (not A4))) (let ((.def_59 (= .def_58 A10))) (let ((.def_60 (not A3))) (let ((.def_61 (not A18))) (let ((.def_62 (or .def_61 .def_60))) (let ((.def_63 (not .def_62))) (let ((.def_64 (and .def_63 .def_59))) (let ((.def_65 (not A0))) (let ((.def_66 (or .def_65 A2))) (let ((.def_67 (not .def_66))) (let ((.def_68 (or .def_4 .def_67))) (let ((.def_69 (and .def_68 .def_64))) (let ((.def_70 (not .def_69))) (let ((.def_71 (and .def_16 .def_65))) (let ((.def_72 (not .def_71))) (let ((.def_73 (not A14))) (let ((.def_74 (and A19 .def_73))) (let ((.def_75 (or .def_74 .def_72))) (let ((.def_76 (or .def_38 A10))) (let ((.def_77 (not .def_76))) (let ((.def_78 (and .def_0 A8))) (let ((.def_79 (not .def_78))) (let ((.def_80 (= .def_79 .def_77))) (let ((.def_81 (not .def_80))) (let ((.def_82 (or .def_81 .def_75))) (let ((.def_83 (or .def_82 .def_70))) (let ((.def_84 (not .def_83))) (let ((.def_85 (and A22 A1))) (let ((.def_86 (and .def_49 .def_0))) (let ((.def_87 (not .def_86))) (let ((.def_88 (or .def_87 .def_85))) (let ((.def_89 (not .def_88))) (let ((.def_90 (or A20 .def_3))) (let ((.def_91 (= A3 A12))) (let ((.def_92 (not .def_91))) (let ((.def_93 (= .def_92 .def_90))) (let ((.def_94 (not .def_93))) (let ((.def_95 (or .def_94 .def_89))) (let ((.def_96 (or A9 A19))) (let ((.def_97 (and A1 A13))) (let ((.def_98 (not .def_97))) (let ((.def_99 (and .def_98 .def_96))) (let ((.def_100 (not .def_99))) (let ((.def_101 (and .def_65 .def_20))) (let ((.def_102 (not A1))) (let ((.def_103 (and A16 .def_102))) (let ((.def_104 (not .def_103))) (let ((.def_105 (or .def_104 .def_101))) (let ((.def_106 (not .def_105))) (let ((.def_107 (or .def_106 .def_100))) (let ((.def_108 (not .def_107))) (let ((.def_109 (and .def_108 .def_95))) (let ((.def_110 (not .def_109))) (let ((.def_111 (and .def_110 .def_84))) (let ((.def_112 (not .def_111))) (let ((.def_113 (and .def_112 .def_57))) .def_113)))))))))))))))))))))))))))))))))))))))))))))))))))))))))))))))))))))))))))))))))))))))))))))))))))))))))))))))))))
(check-sat)
